benchmarks_CP/INST_64x64/50/inst64x64_50_29.dzn
S=8;
start=[|
30,	-1,	-1,	47,	-1,	51,	-1,	-1,	5,	36,	-1,	32,	38,	61,	10,	-1,	-1,	-1,	56,	23,	13,	-1,	60,	-1,	35,	59,	33,	-1,	-1,	-1,	-1,	16,	-1,	58,	44,	-1,	-1,	1,	-1,	41,	-1,	-1,	-1,	7,	34,	22,	-1,	14,	-1,	20,	19,	31,	-1,	-1,	55,	-1,	-1,	52,	-1,	40,	-1,	-1,	57,	11|
42,	57,	35,	54,	20,	38,	-1,	-1,	-1,	-1,	24,	59,	40,	-1,	-1,	19,	-1,	-1,	41,	64,	-1,	-1,	49,	-1,	62,	36,	-1,	14,	-1,	-1,	25,	47,	23,	-1,	-1,	43,	16,	22,	-1,	37,	44,	32,	-1,	30,	-1,	-1,	9,	61,	39,	26,	12,	-1,	-1,	-1,	27,	5,	51,	8,	10,	7,	15,	48,	-1,	-1|
13,	11,	-1,	-1,	-1,	-1,	36,	48,	4,	-1,	-1,	1,	9,	42,	15,	53,	31,	46,	-1,	44,	-1,	29,	-1,	26,	60,	-1,	54,	41,	-1,	19,	-1,	30,	-1,	-1,	-1,	2,	51,	-1,	-1,	-1,	6,	12,	-1,	37,	24,	17,	25,	-1,	-1,	-1,	-1,	35,	56,	22,	-1,	16,	-1,	-1,	58,	5,	-1,	64,	18,	-1|
27,	-1,	15,	-1,	3,	-1,	32,	41,	39,	-1,	-1,	-1,	-1,	-1,	-1,	46,	55,	-1,	-1,	47,	16,	-1,	59,	61,	-1,	-1,	-1,	-1,	9,	34,	-1,	-1,	31,	49,	-1,	-1,	25,	40,	-1,	5,	8,	-1,	11,	18,	54,	36,	48,	-1,	64,	-1,	-1,	43,	-1,	-1,	1,	-1,	50,	62,	17,	-1,	-1,	19,	56,	-1|
59,	50,	-1,	-1,	56,	63,	9,	44,	-1,	-1,	25,	55,	-1,	-1,	-1,	-1,	11,	-1,	27,	-1,	-1,	-1,	-1,	4,	-1,	31,	-1,	-1,	52,	-1,	24,	-1,	-1,	-1,	-1,	6,	-1,	-1,	-1,	28,	42,	-1,	16,	47,	40,	60,	-1,	-1,	-1,	-1,	-1,	21,	10,	48,	36,	-1,	-1,	-1,	-1,	-1,	-1,	61,	-1,	-1|
12,	-1,	26,	49,	21,	-1,	40,	7,	16,	-1,	58,	43,	-1,	-1,	-1,	-1,	-1,	2,	5,	3,	14,	-1,	39,	-1,	22,	-1,	29,	-1,	-1,	18,	15,	-1,	-1,	52,	47,	9,	64,	-1,	32,	24,	55,	-1,	-1,	50,	-1,	-1,	19,	57,	-1,	-1,	-1,	-1,	-1,	30,	46,	25,	-1,	33,	-1,	-1,	41,	38,	54,	36|
-1,	-1,	37,	-1,	-1,	31,	29,	-1,	-1,	-1,	-1,	-1,	54,	12,	28,	-1,	-1,	-1,	25,	-1,	-1,	-1,	22,	-1,	-1,	27,	46,	-1,	-1,	-1,	-1,	48,	-1,	-1,	19,	-1,	26,	11,	53,	-1,	39,	-1,	58,	-1,	64,	23,	15,	56,	-1,	-1,	38,	-1,	-1,	-1,	-1,	40,	44,	16,	-1,	-1,	63,	30,	-1,	-1|
19,	-1,	-1,	60,	-1,	-1,	-1,	-1,	-1,	-1,	-1,	-1,	-1,	-1,	51,	31,	48,	43,	35,	32,	-1,	-1,	17,	-1,	49,	-1,	40,	44,	42,	-1,	28,	-1,	33,	39,	13,	-1,	-1,	61,	-1,	-1,	-1,	59,	-1,	-1,	-1,	63,	-1,	-1,	-1,	-1,	54,	-1,	15,	-1,	3,	-1,	-1,	12,	-1,	-1,	-1,	26,	-1,	45|
-1,	-1,	39,	-1,	-1,	-1,	-1,	-1,	45,	-1,	1,	-1,	-1,	55,	-1,	-1,	-1,	-1,	-1,	22,	-1,	-1,	-1,	7,	-1,	20,	-1,	-1,	-1,	4,	-1,	25,	34,	-1,	-1,	13,	47,	9,	-1,	12,	49,	54,	-1,	38,	18,	-1,	64,	23,	57,	30,	60,	32,	62,	17,	-1,	35,	40,	-1,	24,	46,	11,	-1,	10,	-1|
10,	-1,	-1,	55,	30,	-1,	62,	52,	15,	12,	32,	-1,	28,	-1,	-1,	-1,	-1,	8,	9,	60,	-1,	-1,	14,	2,	40,	-1,	49,	-1,	-1,	61,	-1,	-1,	-1,	-1,	-1,	-1,	63,	-1,	6,	-1,	1,	13,	37,	42,	-1,	-1,	17,	-1,	33,	31,	-1,	56,	48,	27,	-1,	-1,	-1,	-1,	-1,	-1,	-1,	-1,	-1,	-1|
-1,	-1,	-1,	17,	5,	37,	57,	45,	-1,	-1,	23,	53,	34,	39,	-1,	62,	25,	-1,	21,	42,	35,	30,	47,	13,	33,	-1,	11,	-1,	8,	-1,	-1,	-1,	-1,	-1,	-1,	-1,	-1,	28,	49,	-1,	52,	31,	-1,	9,	61,	-1,	43,	26,	-1,	4,	-1,	18,	41,	24,	-1,	-1,	60,	58,	64,	-1,	-1,	12,	-1,	-1|
-1,	47,	29,	-1,	-1,	56,	35,	-1,	64,	-1,	27,	-1,	5,	24,	-1,	60,	61,	19,	-1,	38,	11,	-1,	43,	-1,	23,	-1,	-1,	-1,	-1,	17,	36,	2,	-1,	32,	53,	3,	33,	25,	-1,	-1,	40,	-1,	34,	22,	4,	-1,	50,	46,	28,	-1,	-1,	-1,	-1,	54,	-1,	9,	1,	-1,	-1,	8,	57,	14,	-1,	-1|
-1,	59,	38,	-1,	-1,	-1,	-1,	-1,	9,	4,	42,	40,	-1,	52,	-1,	35,	57,	-1,	-1,	-1,	62,	37,	28,	51,	-1,	64,	-1,	-1,	55,	29,	-1,	-1,	-1,	-1,	-1,	46,	-1,	7,	-1,	48,	21,	14,	25,	-1,	41,	-1,	-1,	-1,	-1,	63,	13,	23,	50,	2,	19,	-1,	-1,	17,	-1,	-1,	61,	-1,	36,	33|
1,	25,	40,	-1,	48,	2,	23,	-1,	-1,	11,	36,	33,	-1,	-1,	-1,	30,	-1,	17,	-1,	-1,	-1,	-1,	-1,	50,	37,	19,	-1,	-1,	-1,	62,	-1,	-1,	39,	-1,	-1,	38,	-1,	4,	64,	21,	-1,	-1,	24,	-1,	-1,	-1,	-1,	45,	-1,	3,	42,	-1,	-1,	52,	-1,	-1,	-1,	22,	16,	9,	56,	-1,	13,	59|
-1,	54,	-1,	-1,	-1,	4,	-1,	-1,	-1,	-1,	-1,	16,	21,	-1,	-1,	14,	63,	-1,	-1,	33,	-1,	-1,	23,	55,	-1,	28,	-1,	27,	34,	24,	13,	9,	17,	-1,	31,	-1,	18,	26,	52,	-1,	48,	-1,	12,	-1,	30,	-1,	-1,	60,	-1,	-1,	-1,	-1,	-1,	51,	39,	10,	-1,	7,	-1,	-1,	-1,	-1,	-1,	47|
14,	-1,	-1,	-1,	-1,	-1,	-1,	-1,	-1,	3,	-1,	2,	-1,	-1,	-1,	-1,	54,	39,	20,	-1,	-1,	45,	-1,	-1,	-1,	-1,	47,	22,	48,	38,	-1,	63,	-1,	27,	62,	-1,	36,	24,	1,	55,	-1,	-1,	29,	10,	-1,	-1,	11,	-1,	21,	6,	8,	61,	-1,	15,	-1,	-1,	-1,	49,	-1,	-1,	28,	-1,	52,	25|
-1,	13,	21,	40,	-1,	14,	1,	15,	-1,	37,	-1,	4,	63,	-1,	-1,	5,	43,	56,	-1,	51,	47,	26,	25,	17,	-1,	-1,	8,	60,	23,	20,	29,	61,	45,	24,	27,	42,	-1,	-1,	-1,	-1,	-1,	62,	55,	-1,	19,	-1,	30,	-1,	-1,	28,	-1,	46,	49,	41,	52,	-1,	-1,	-1,	11,	3,	48,	57,	33,	-1|
20,	-1,	23,	-1,	-1,	57,	-1,	-1,	-1,	56,	-1,	-1,	47,	32,	-1,	10,	-1,	-1,	7,	-1,	29,	55,	4,	16,	44,	-1,	41,	-1,	-1,	50,	21,	-1,	26,	51,	8,	48,	2,	19,	62,	-1,	-1,	-1,	-1,	52,	45,	58,	54,	42,	-1,	-1,	31,	-1,	1,	-1,	6,	-1,	-1,	64,	-1,	36,	5,	-1,	25,	24|
6,	-1,	-1,	48,	60,	-1,	-1,	28,	-1,	58,	64,	-1,	-1,	-1,	-1,	-1,	-1,	-1,	-1,	30,	-1,	23,	63,	5,	27,	11,	-1,	36,	43,	-1,	39,	35,	4,	-1,	-1,	40,	12,	-1,	-1,	33,	14,	16,	44,	-1,	25,	-1,	3,	24,	22,	18,	-1,	10,	-1,	-1,	62,	-1,	7,	-1,	-1,	51,	-1,	56,	8,	38|
-1,	44,	24,	-1,	-1,	12,	-1,	-1,	-1,	-1,	52,	62,	-1,	-1,	-1,	33,	40,	35,	31,	-1,	-1,	-1,	8,	57,	-1,	54,	34,	-1,	-1,	42,	-1,	-1,	64,	-1,	46,	25,	58,	37,	5,	-1,	-1,	-1,	23,	-1,	-1,	-1,	36,	-1,	-1,	7,	56,	-1,	59,	61,	-1,	21,	18,	-1,	63,	14,	29,	-1,	20,	10|
47,	36,	8,	39,	-1,	43,	-1,	62,	53,	-1,	61,	-1,	25,	-1,	-1,	18,	-1,	-1,	54,	27,	10,	-1,	-1,	-1,	-1,	-1,	56,	7,	-1,	32,	-1,	-1,	-1,	-1,	-1,	28,	9,	-1,	13,	-1,	-1,	-1,	-1,	63,	-1,	46,	34,	15,	-1,	29,	48,	-1,	-1,	-1,	4,	44,	59,	26,	-1,	-1,	37,	50,	42,	55|
61,	45,	3,	-1,	10,	16,	-1,	-1,	-1,	38,	54,	-1,	50,	48,	9,	-1,	1,	15,	-1,	2,	-1,	-1,	-1,	-1,	-1,	49,	-1,	24,	63,	51,	14,	59,	-1,	-1,	-1,	-1,	-1,	29,	35,	-1,	-1,	-1,	8,	-1,	-1,	26,	7,	37,	-1,	-1,	55,	27,	64,	-1,	25,	39,	-1,	-1,	43,	13,	6,	-1,	41,	34|
64,	-1,	11,	63,	54,	25,	58,	5,	-1,	55,	-1,	51,	22,	-1,	-1,	40,	-1,	37,	19,	-1,	41,	44,	-1,	34,	-1,	-1,	-1,	-1,	13,	-1,	45,	-1,	38,	15,	-1,	49,	-1,	-1,	30,	-1,	33,	-1,	-1,	59,	53,	-1,	56,	28,	-1,	-1,	-1,	26,	-1,	12,	-1,	-1,	-1,	2,	32,	16,	23,	-1,	62,	-1|
-1,	18,	-1,	-1,	-1,	-1,	7,	31,	-1,	-1,	-1,	-1,	-1,	-1,	19,	-1,	20,	9,	-1,	-1,	-1,	-1,	-1,	-1,	26,	2,	48,	-1,	25,	5,	46,	-1,	36,	43,	-1,	-1,	-1,	-1,	-1,	-1,	-1,	-1,	35,	29,	-1,	12,	-1,	-1,	16,	51,	-1,	57,	13,	-1,	-1,	-1,	54,	-1,	60,	47,	-1,	-1,	30,	-1|
-1,	55,	7,	-1,	52,	36,	61,	13,	-1,	19,	-1,	44,	27,	-1,	47,	29,	8,	59,	-1,	-1,	21,	-1,	-1,	-1,	1,	48,	-1,	-1,	28,	-1,	-1,	32,	-1,	63,	38,	33,	-1,	-1,	-1,	-1,	45,	-1,	-1,	17,	-1,	34,	60,	16,	-1,	-1,	-1,	-1,	-1,	-1,	58,	49,	53,	-1,	-1,	25,	-1,	-1,	23,	42|
-1,	9,	-1,	-1,	45,	5,	-1,	-1,	32,	24,	39,	18,	11,	6,	-1,	-1,	-1,	52,	42,	40,	-1,	-1,	-1,	-1,	-1,	56,	23,	12,	-1,	60,	53,	46,	3,	54,	-1,	-1,	-1,	-1,	61,	-1,	-1,	30,	-1,	-1,	59,	-1,	44,	-1,	-1,	-1,	-1,	16,	17,	-1,	-1,	63,	-1,	-1,	-1,	-1,	43,	29,	-1,	41|
-1,	-1,	33,	-1,	-1,	30,	37,	-1,	-1,	46,	-1,	-1,	53,	-1,	34,	59,	-1,	25,	63,	-1,	39,	32,	56,	-1,	11,	58,	61,	-1,	16,	-1,	47,	-1,	-1,	-1,	-1,	20,	-1,	-1,	-1,	-1,	10,	-1,	42,	28,	-1,	-1,	-1,	-1,	-1,	-1,	36,	13,	24,	-1,	-1,	-1,	-1,	-1,	-1,	12,	-1,	-1,	-1,	18|
-1,	-1,	-1,	51,	-1,	53,	34,	-1,	-1,	60,	-1,	-1,	-1,	-1,	42,	-1,	3,	20,	-1,	-1,	-1,	-1,	6,	-1,	24,	-1,	31,	-1,	-1,	52,	-1,	-1,	-1,	-1,	59,	5,	-1,	15,	-1,	-1,	-1,	-1,	-1,	26,	-1,	54,	-1,	-1,	62,	-1,	-1,	-1,	-1,	23,	-1,	61,	11,	-1,	-1,	-1,	17,	-1,	-1,	8|
-1,	-1,	-1,	62,	-1,	-1,	-1,	-1,	38,	52,	31,	22,	33,	-1,	26,	-1,	-1,	45,	-1,	14,	61,	58,	53,	-1,	17,	41,	64,	-1,	5,	-1,	-1,	-1,	2,	19,	-1,	18,	34,	27,	-1,	16,	15,	23,	-1,	32,	29,	-1,	-1,	49,	-1,	47,	37,	59,	55,	-1,	-1,	28,	-1,	35,	-1,	21,	40,	-1,	3,	51|
32,	-1,	43,	26,	-1,	-1,	63,	20,	-1,	10,	50,	-1,	51,	-1,	-1,	-1,	23,	-1,	-1,	29,	24,	2,	57,	-1,	39,	-1,	-1,	30,	-1,	-1,	18,	49,	-1,	-1,	1,	-1,	-1,	-1,	28,	-1,	-1,	48,	53,	-1,	-1,	-1,	31,	4,	42,	44,	-1,	64,	3,	6,	-1,	-1,	-1,	59,	-1,	55,	19,	33,	7,	-1|
21,	24,	31,	-1,	-1,	-1,	25,	54,	36,	35,	55,	-1,	-1,	63,	2,	-1,	-1,	-1,	13,	-1,	7,	-1,	16,	28,	-1,	-1,	-1,	-1,	6,	14,	-1,	34,	9,	-1,	42,	47,	52,	-1,	-1,	8,	46,	-1,	-1,	-1,	56,	-1,	62,	-1,	-1,	-1,	-1,	60,	53,	-1,	41,	-1,	-1,	-1,	-1,	-1,	-1,	-1,	61,	-1|
-1,	42,	-1,	-1,	18,	-1,	-1,	-1,	-1,	30,	62,	20,	41,	7,	-1,	16,	-1,	60,	34,	-1,	12,	-1,	-1,	44,	2,	-1,	57,	-1,	38,	10,	22,	40,	-1,	25,	39,	-1,	37,	-1,	36,	53,	24,	61,	5,	43,	52,	-1,	21,	1,	-1,	35,	-1,	15,	32,	-1,	-1,	-1,	-1,	-1,	-1,	-1,	9,	54,	26,	-1|
-1,	20,	-1,	-1,	23,	44,	-1,	-1,	7,	22,	48,	38,	16,	-1,	-1,	-1,	10,	-1,	26,	-1,	18,	-1,	-1,	-1,	-1,	-1,	6,	-1,	17,	-1,	62,	33,	-1,	-1,	-1,	59,	-1,	55,	2,	58,	64,	-1,	-1,	-1,	27,	-1,	-1,	-1,	-1,	19,	-1,	-1,	-1,	11,	-1,	32,	-1,	-1,	50,	53,	35,	-1,	5,	3|
26,	56,	19,	-1,	6,	-1,	52,	40,	33,	-1,	-1,	12,	-1,	58,	3,	21,	-1,	-1,	-1,	25,	-1,	35,	27,	-1,	43,	61,	44,	2,	-1,	13,	-1,	-1,	-1,	-1,	30,	-1,	-1,	32,	-1,	38,	-1,	17,	-1,	-1,	39,	14,	-1,	-1,	-1,	10,	-1,	-1,	34,	-1,	28,	41,	-1,	37,	-1,	54,	-1,	8,	-1,	-1|
31,	-1,	-1,	18,	29,	54,	-1,	-1,	62,	-1,	37,	-1,	-1,	50,	6,	-1,	30,	-1,	15,	-1,	28,	-1,	-1,	40,	-1,	47,	21,	-1,	45,	-1,	11,	-1,	-1,	-1,	-1,	-1,	-1,	35,	-1,	-1,	-1,	-1,	9,	33,	-1,	41,	58,	10,	1,	-1,	-1,	7,	25,	-1,	-1,	17,	52,	-1,	14,	23,	49,	27,	16,	2|
-1,	-1,	-1,	35,	57,	21,	-1,	30,	43,	-1,	-1,	-1,	-1,	-1,	-1,	-1,	2,	11,	-1,	-1,	-1,	-1,	-1,	-1,	51,	24,	-1,	-1,	-1,	-1,	-1,	-1,	-1,	-1,	-1,	-1,	41,	-1,	-1,	-1,	59,	25,	-1,	5,	36,	-1,	55,	19,	-1,	33,	-1,	38,	26,	-1,	23,	-1,	-1,	-1,	-1,	44,	45,	-1,	47,	-1|
-1,	-1,	5,	53,	41,	-1,	49,	-1,	24,	-1,	-1,	-1,	31,	60,	-1,	17,	-1,	-1,	-1,	21,	-1,	-1,	-1,	1,	-1,	-1,	-1,	52,	-1,	8,	-1,	50,	46,	10,	43,	-1,	45,	-1,	20,	-1,	-1,	28,	51,	-1,	48,	35,	61,	12,	-1,	9,	-1,	-1,	47,	29,	-1,	18,	34,	-1,	-1,	33,	-1,	-1,	-1,	32|
-1,	14,	10,	-1,	-1,	1,	-1,	33,	23,	-1,	-1,	11,	18,	40,	-1,	-1,	47,	-1,	8,	-1,	-1,	-1,	-1,	38,	-1,	-1,	59,	-1,	-1,	49,	-1,	39,	37,	16,	-1,	-1,	15,	-1,	-1,	-1,	-1,	-1,	32,	-1,	42,	-1,	-1,	53,	-1,	-1,	62,	-1,	2,	-1,	22,	51,	58,	57,	19,	61,	24,	-1,	-1,	48|
-1,	-1,	-1,	-1,	-1,	17,	55,	42,	51,	-1,	-1,	-1,	-1,	-1,	-1,	-1,	34,	-1,	-1,	6,	-1,	33,	-1,	-1,	64,	7,	5,	16,	-1,	-1,	-1,	-1,	62,	-1,	23,	39,	-1,	47,	-1,	-1,	-1,	-1,	-1,	-1,	57,	30,	-1,	-1,	-1,	48,	-1,	-1,	-1,	-1,	-1,	-1,	-1,	-1,	1,	-1,	26,	41,	60,	31|
-1,	39,	-1,	50,	61,	27,	11,	2,	35,	44,	14,	28,	19,	-1,	-1,	-1,	46,	-1,	64,	59,	17,	20,	-1,	-1,	-1,	55,	-1,	-1,	-1,	36,	-1,	-1,	29,	-1,	5,	-1,	-1,	-1,	33,	40,	34,	-1,	38,	13,	8,	-1,	37,	-1,	43,	15,	3,	-1,	-1,	56,	-1,	-1,	21,	-1,	30,	10,	22,	51,	12,	63|
-1,	-1,	47,	32,	-1,	10,	-1,	-1,	-1,	5,	6,	21,	-1,	-1,	-1,	7,	64,	26,	-1,	-1,	30,	4,	44,	15,	-1,	-1,	14,	-1,	59,	-1,	63,	-1,	27,	33,	52,	12,	-1,	18,	-1,	-1,	54,	3,	56,	8,	16,	-1,	-1,	-1,	-1,	-1,	20,	48,	-1,	38,	9,	-1,	46,	42,	-1,	28,	-1,	-1,	-1,	40|
51,	-1,	60,	14,	-1,	64,	44,	-1,	29,	-1,	40,	-1,	-1,	-1,	-1,	39,	-1,	-1,	-1,	-1,	-1,	-1,	34,	23,	21,	-1,	2,	28,	54,	1,	9,	53,	42,	7,	25,	56,	-1,	-1,	-1,	-1,	36,	-1,	-1,	-1,	-1,	37,	-1,	50,	58,	-1,	-1,	-1,	35,	-1,	18,	-1,	10,	19,	12,	52,	-1,	-1,	-1,	26|
52,	-1,	-1,	-1,	7,	49,	54,	56,	-1,	-1,	-1,	50,	60,	-1,	44,	3,	-1,	51,	38,	-1,	57,	-1,	18,	62,	20,	-1,	-1,	64,	12,	58,	-1,	36,	61,	-1,	-1,	-1,	-1,	-1,	10,	-1,	63,	22,	4,	-1,	11,	27,	-1,	25,	-1,	39,	47,	-1,	-1,	-1,	33,	29,	8,	5,	-1,	32,	55,	-1,	-1,	-1|
-1,	16,	6,	-1,	-1,	-1,	53,	59,	48,	-1,	-1,	35,	64,	54,	38,	-1,	-1,	-1,	14,	-1,	25,	12,	-1,	-1,	47,	-1,	-1,	56,	-1,	46,	-1,	-1,	-1,	3,	15,	26,	-1,	-1,	17,	-1,	41,	52,	-1,	51,	62,	-1,	20,	13,	-1,	-1,	27,	42,	-1,	19,	-1,	23,	-1,	-1,	-1,	45,	-1,	-1,	-1,	-1|
-1,	-1,	-1,	21,	-1,	62,	-1,	-1,	56,	-1,	-1,	-1,	37,	-1,	-1,	12,	53,	36,	6,	48,	-1,	8,	-1,	-1,	31,	-1,	-1,	-1,	-1,	-1,	49,	29,	-1,	-1,	32,	-1,	-1,	5,	22,	-1,	-1,	-1,	60,	-1,	-1,	45,	47,	-1,	-1,	-1,	-1,	-1,	14,	-1,	-1,	-1,	-1,	-1,	-1,	30,	44,	-1,	-1,	54|
-1,	26,	-1,	8,	38,	-1,	12,	36,	-1,	-1,	-1,	-1,	62,	10,	53,	-1,	45,	42,	33,	7,	9,	56,	-1,	58,	-1,	60,	-1,	48,	24,	41,	6,	52,	-1,	47,	29,	30,	54,	49,	43,	-1,	-1,	18,	-1,	46,	44,	40,	-1,	2,	-1,	-1,	-1,	-1,	-1,	28,	-1,	11,	-1,	34,	-1,	27,	3,	16,	35,	22|
-1,	63,	-1,	-1,	55,	-1,	-1,	29,	-1,	-1,	16,	41,	46,	15,	57,	24,	59,	31,	28,	-1,	-1,	54,	-1,	-1,	-1,	-1,	22,	-1,	33,	30,	8,	-1,	6,	44,	9,	-1,	53,	-1,	-1,	51,	32,	-1,	-1,	58,	-1,	42,	-1,	7,	-1,	62,	-1,	-1,	-1,	4,	49,	-1,	2,	-1,	21,	-1,	-1,	37,	48,	56|
40,	28,	18,	-1,	-1,	48,	3,	19,	-1,	-1,	-1,	25,	32,	49,	-1,	-1,	22,	-1,	50,	-1,	-1,	61,	10,	35,	4,	-1,	-1,	51,	44,	-1,	-1,	-1,	-1,	2,	21,	-1,	62,	20,	58,	11,	38,	-1,	6,	34,	-1,	43,	29,	30,	46,	55,	-1,	-1,	8,	-1,	-1,	56,	64,	-1,	53,	17,	-1,	7,	-1,	60|
28,	-1,	63,	-1,	-1,	58,	-1,	24,	-1,	54,	11,	14,	17,	46,	-1,	-1,	-1,	3,	49,	-1,	-1,	27,	-1,	32,	-1,	-1,	-1,	62,	31,	-1,	-1,	57,	19,	5,	-1,	-1,	21,	51,	-1,	-1,	9,	-1,	61,	4,	43,	-1,	18,	-1,	36,	-1,	-1,	-1,	-1,	-1,	-1,	55,	-1,	40,	-1,	-1,	10,	59,	-1,	30|
-1,	4,	-1,	-1,	-1,	45,	-1,	-1,	6,	-1,	63,	-1,	12,	62,	35,	-1,	42,	-1,	47,	-1,	-1,	40,	55,	36,	-1,	-1,	1,	61,	-1,	33,	2,	13,	-1,	57,	-1,	17,	29,	54,	-1,	-1,	27,	8,	41,	-1,	14,	28,	51,	-1,	-1,	21,	-1,	-1,	9,	3,	-1,	30,	32,	-1,	20,	-1,	50,	-1,	46,	23|
18,	-1,	-1,	-1,	44,	-1,	-1,	-1,	22,	-1,	43,	-1,	-1,	-1,	-1,	9,	-1,	-1,	52,	-1,	59,	25,	1,	-1,	36,	29,	42,	-1,	-1,	-1,	34,	55,	30,	-1,	-1,	32,	-1,	-1,	15,	-1,	60,	-1,	19,	-1,	47,	38,	-1,	11,	37,	-1,	7,	-1,	-1,	-1,	-1,	-1,	17,	28,	-1,	-1,	-1,	63,	-1,	-1|
-1,	-1,	-1,	-1,	-1,	26,	-1,	-1,	-1,	51,	5,	-1,	-1,	41,	-1,	-1,	-1,	-1,	-1,	54,	64,	17,	-1,	6,	46,	-1,	-1,	49,	47,	28,	-1,	-1,	-1,	36,	-1,	45,	24,	43,	-1,	2,	62,	42,	59,	16,	-1,	21,	-1,	-1,	-1,	38,	4,	40,	61,	1,	-1,	53,	35,	60,	-1,	37,	25,	-1,	-1,	-1|
-1,	30,	59,	57,	16,	19,	-1,	-1,	-1,	-1,	60,	7,	-1,	27,	-1,	-1,	-1,	48,	-1,	34,	26,	-1,	61,	-1,	8,	15,	38,	-1,	-1,	-1,	-1,	-1,	41,	23,	-1,	63,	50,	-1,	37,	4,	31,	36,	-1,	25,	-1,	-1,	13,	-1,	18,	14,	-1,	-1,	-1,	46,	-1,	-1,	-1,	-1,	51,	-1,	52,	6,	-1,	12|
-1,	-1,	2,	37,	-1,	13,	56,	-1,	40,	-1,	-1,	42,	-1,	18,	-1,	-1,	-1,	-1,	11,	-1,	23,	-1,	-1,	-1,	25,	16,	-1,	-1,	-1,	39,	3,	-1,	44,	9,	-1,	-1,	10,	58,	-1,	-1,	12,	33,	-1,	54,	-1,	-1,	-1,	-1,	-1,	-1,	52,	24,	19,	32,	-1,	57,	-1,	-1,	48,	-1,	8,	-1,	53,	21|
55,	40,	27,	-1,	32,	61,	17,	-1,	25,	53,	-1,	-1,	8,	28,	21,	48,	38,	18,	-1,	-1,	-1,	-1,	-1,	-1,	7,	9,	60,	35,	-1,	63,	-1,	51,	-1,	31,	16,	34,	1,	-1,	-1,	47,	23,	-1,	46,	-1,	-1,	-1,	57,	52,	-1,	-1,	15,	-1,	-1,	-1,	45,	-1,	-1,	-1,	-1,	62,	-1,	3,	64,	-1|
29,	5,	54,	11,	51,	47,	-1,	60,	58,	59,	-1,	23,	-1,	1,	-1,	32,	-1,	-1,	45,	8,	-1,	16,	21,	20,	-1,	40,	27,	-1,	-1,	-1,	-1,	-1,	52,	64,	28,	22,	55,	12,	25,	-1,	-1,	-1,	-1,	-1,	50,	-1,	-1,	48,	35,	17,	-1,	-1,	-1,	42,	-1,	31,	9,	13,	-1,	-1,	38,	-1,	-1,	-1|
-1,	-1,	-1,	-1,	37,	42,	5,	21,	14,	-1,	-1,	-1,	-1,	16,	-1,	36,	9,	34,	-1,	45,	-1,	-1,	11,	-1,	-1,	-1,	-1,	-1,	-1,	-1,	-1,	-1,	-1,	-1,	33,	1,	27,	-1,	26,	-1,	-1,	19,	54,	-1,	-1,	49,	-1,	29,	-1,	-1,	30,	-1,	-1,	-1,	15,	-1,	24,	-1,	59,	-1,	12,	-1,	-1,	-1|
-1,	-1,	-1,	-1,	-1,	-1,	-1,	26,	44,	40,	-1,	-1,	30,	-1,	55,	50,	18,	-1,	3,	35,	2,	-1,	-1,	-1,	12,	51,	9,	32,	-1,	48,	-1,	42,	47,	21,	-1,	29,	43,	46,	34,	59,	-1,	-1,	-1,	-1,	-1,	-1,	33,	-1,	-1,	-1,	-1,	-1,	37,	-1,	31,	-1,	-1,	-1,	54,	11,	64,	53,	39,	-1|
-1,	15,	-1,	-1,	31,	-1,	18,	-1,	46,	-1,	10,	-1,	24,	-1,	32,	27,	-1,	58,	-1,	-1,	-1,	-1,	-1,	-1,	-1,	13,	62,	-1,	-1,	-1,	38,	-1,	60,	-1,	36,	52,	39,	-1,	11,	56,	37,	20,	-1,	-1,	28,	57,	-1,	-1,	-1,	43,	1,	-1,	22,	-1,	61,	-1,	14,	-1,	33,	-1,	47,	44,	-1,	-1|
-1,	-1,	41,	-1,	-1,	-1,	-1,	9,	-1,	-1,	-1,	-1,	3,	-1,	-1,	-1,	52,	13,	-1,	10,	-1,	59,	-1,	-1,	-1,	1,	4,	47,	46,	-1,	-1,	-1,	-1,	-1,	-1,	-1,	17,	14,	-1,	15,	30,	-1,	-1,	39,	60,	-1,	38,	-1,	49,	12,	44,	63,	57,	36,	42,	26,	16,	32,	-1,	29,	18,	35,	34,	50|
22,	-1,	57,	-1,	62,	34,	-1,	43,	-1,	-1,	51,	5,	-1,	33,	7,	4,	-1,	-1,	-1,	12,	32,	-1,	30,	8,	-1,	-1,	-1,	-1,	53,	55,	-1,	44,	-1,	37,	-1,	10,	61,	38,	19,	-1,	-1,	-1,	-1,	11,	3,	64,	42,	-1,	-1,	60,	-1,	41,	-1,	39,	-1,	-1,	-1,	25,	28,	56,	-1,	-1,	1,	15|
-1,	52,	49,	29,	-1,	-1,	-1,	-1,	59,	-1,	41,	-1,	1,	17,	39,	-1,	-1,	62,	57,	-1,	-1,	-1,	54,	19,	-1,	37,	-1,	6,	11,	-1,	43,	-1,	-1,	30,	12,	-1,	-1,	16,	48,	9,	22,	-1,	-1,	56,	-1,	-1,	-1,	-1,	-1,	-1,	10,	-1,	-1,	21,	-1,	45,	-1,	3,	13,	-1,	-1,	60,	-1,	-1|
17,	-1,	53,	7,	8,	-1,	-1,	39,	-1,	9,	-1,	56,	48,	21,	62,	47,	29,	-1,	1,	20,	-1,	-1,	-1,	37,	15,	3,	-1,	33,	60,	59,	58,	27,	25,	4,	63,	41,	-1,	44,	-1,	-1,	61,	-1,	-1,	36,	23,	18,	24,	-1,	-1,	-1,	32,	52,	38,	-1,	-1,	-1,	45,	55,	49,	-1,	-1,	-1,	2,	6|
25,	12,	-1,	28,	63,	-1,	14,	-1,	42,	-1,	38,	-1,	61,	2,	11,	15,	49,	47,	60,	-1,	-1,	-1,	33,	41,	5,	-1,	36,	34,	-1,	-1,	16,	-1,	-1,	-1,	54,	-1,	-1,	3,	23,	45,	-1,	-1,	-1,	1,	9,	53,	8,	-1,	-1,	-1,	35,	-1,	27,	18,	-1,	59,	48,	31,	37,	4,	30,	-1,	-1,	-1|];
