sudoku-ls/benchmarks_LEQ/INST_64x64/50/inst64x64_50_29.txt
8
1
-1	-1	-1	47	53	51	24	-1	5	36	21	32	-1	-1	10	2	-1	-1	-1	23	-1	-1	-1	12	35	59	-1	-1	-1	37	50	-1	-1	-1	-1	-1	-1	1	-1	-1	-1	-1	27	7	-1	-1	-1	-1	-1	20	-1	-1	-1	9	55	-1	3	-1	25	-1	4	42	-1	11
42	57	35	-1	20	-1	4	-1	52	-1	-1	-1	-1	3	60	19	-1	6	41	64	1	-1	49	-1	-1	-1	63	-1	-1	-1	25	47	-1	-1	45	-1	16	22	55	-1	44	-1	-1	-1	-1	-1	9	-1	39	-1	12	28	-1	33	-1	5	-1	8	-1	7	15	-1	29	-1
-1	-1	-1	61	39	23	-1	48	4	-1	-1	-1	9	42	-1	53	31	46	40	-1	8	-1	-1	-1	60	43	-1	-1	-1	19	32	-1	-1	-1	34	-1	51	-1	59	27	6	12	10	37	24	17	-1	-1	-1	-1	-1	35	-1	22	47	-1	55	21	-1	-1	-1	64	-1	-1
27	6	15	52	-1	28	-1	41	-1	26	-1	45	23	14	-1	-1	-1	30	24	47	16	-1	59	61	38	-1	-1	-1	9	34	20	-1	31	49	4	-1	-1	40	12	5	-1	-1	-1	18	-1	36	-1	33	64	-1	29	-1	7	-1	-1	42	50	-1	17	-1	-1	-1	56	-1
59	-1	-1	5	-1	-1	-1	-1	57	7	-1	55	49	-1	37	64	11	-1	27	-1	-1	-1	15	-1	13	-1	-1	-1	-1	45	24	-1	-1	-1	18	-1	-1	30	54	-1	-1	-1	-1	47	40	-1	-1	-1	23	2	53	21	-1	48	-1	-1	-1	1	-1	43	14	-1	32	-1
-1	34	-1	-1	21	8	40	-1	16	62	58	43	-1	-1	-1	-1	37	2	5	-1	-1	-1	39	-1	-1	-1	29	23	-1	18	15	56	-1	-1	47	9	-1	63	32	24	-1	-1	-1	50	20	4	19	-1	13	-1	61	51	60	-1	46	25	-1	-1	27	-1	41	-1	-1	36
-1	-1	-1	-1	-1	31	-1	-1	17	-1	8	34	54	-1	-1	20	-1	-1	25	-1	-1	-1	-1	-1	61	27	-1	-1	-1	6	-1	48	50	14	19	-1	-1	11	-1	42	-1	-1	58	-1	64	-1	15	-1	41	24	-1	-1	45	-1	32	40	-1	-1	-1	-1	-1	-1	49	13
-1	46	-1	-1	58	22	-1	25	-1	41	-1	-1	-1	-1	-1	-1	48	43	35	-1	50	-1	17	-1	-1	4	-1	-1	-1	21	-1	-1	-1	-1	13	-1	20	-1	29	36	-1	59	52	53	-1	63	-1	-1	-1	-1	54	8	-1	57	3	62	6	-1	23	24	-1	-1	9	45
-1	-1	-1	27	-1	-1	26	-1	-1	-1	-1	-1	-1	-1	41	61	15	44	53	-1	5	36	29	-1	-1	-1	3	31	-1	4	56	-1	34	42	37	-1	-1	-1	16	-1	-1	54	-1	38	-1	-1	-1	-1	57	30	-1	-1	62	17	14	-1	40	-1	24	46	-1	2	-1	-1
-1	53	46	55	-1	18	62	-1	-1	12	32	-1	-1	-1	-1	51	24	-1	-1	-1	-1	3	-1	-1	-1	57	49	-1	39	61	-1	-1	-1	-1	58	-1	-1	-1	6	-1	1	13	37	42	35	-1	17	-1	33	31	43	56	-1	-1	16	64	4	-1	-1	-1	-1	21	50	44
63	7	36	-1	5	-1	57	45	19	48	23	53	34	39	-1	-1	-1	-1	21	42	35	30	47	13	33	-1	-1	46	-1	16	1	15	54	29	2	-1	40	-1	-1	-1	52	31	3	-1	61	59	-1	26	-1	4	-1	-1	-1	24	38	-1	-1	58	-1	-1	32	12	51	27
16	-1	29	20	-1	56	-1	-1	-1	-1	-1	-1	5	24	-1	-1	61	-1	-1	-1	-1	-1	43	48	23	-1	7	42	-1	17	36	-1	15	32	53	-1	-1	25	-1	-1	40	-1	-1	-1	4	62	50	-1	-1	59	26	44	58	54	-1	-1	-1	45	-1	8	57	14	31	39
-1	-1	-1	-1	-1	24	-1	32	-1	4	-1	-1	-1	-1	-1	35	57	27	-1	-1	62	-1	28	-1	45	64	-1	-1	55	29	60	-1	22	8	-1	46	5	-1	56	-1	21	14	25	-1	41	-1	-1	-1	11	-1	13	23	50	2	19	-1	30	-1	-1	34	-1	-1	36	-1
1	-1	40	43	48	2	-1	-1	54	11	-1	-1	-1	-1	-1	-1	41	-1	-1	-1	-1	-1	32	-1	-1	19	10	58	18	-1	-1	-1	39	-1	60	38	14	4	-1	21	57	51	24	-1	-1	-1	28	-1	5	3	42	-1	-1	52	-1	-1	-1	22	-1	9	-1	20	13	-1
8	-1	42	-1	-1	4	22	11	37	-1	29	16	-1	38	46	14	-1	40	58	33	56	6	-1	-1	50	-1	-1	-1	-1	24	-1	-1	-1	-1	31	-1	18	-1	52	-1	-1	2	-1	19	30	44	32	-1	-1	-1	-1	49	36	51	-1	10	62	7	3	41	53	5	43	47
-1	-1	-1	12	-1	-1	-1	34	-1	-1	17	-1	57	44	50	-1	54	39	20	-1	-1	-1	-1	59	-1	32	47	22	48	38	26	-1	43	27	62	51	-1	-1	-1	-1	-1	53	-1	-1	-1	-1	11	-1	-1	-1	-1	61	46	15	-1	7	-1	49	35	42	28	-1	52	-1
9	-1	-1	40	-1	14	1	-1	-1	-1	-1	-1	63	-1	-1	-1	43	56	32	51	-1	26	-1	17	16	-1	-1	60	-1	20	29	61	-1	-1	27	42	-1	-1	-1	-1	18	62	-1	-1	-1	-1	30	-1	-1	28	58	46	-1	-1	52	-1	12	-1	11	3	48	-1	-1	35
-1	-1	-1	46	34	57	-1	27	3	-1	28	13	47	32	-1	-1	33	-1	-1	18	-1	55	-1	16	-1	30	-1	9	-1	-1	21	17	26	-1	8	48	2	-1	62	63	43	-1	49	-1	-1	58	-1	42	-1	53	31	11	1	-1	-1	-1	61	-1	39	-1	5	-1	25	-1
-1	-1	-1	48	-1	-1	2	-1	-1	58	-1	-1	-1	-1	29	49	-1	21	59	-1	-1	23	63	5	-1	-1	-1	36	-1	-1	-1	-1	4	53	-1	-1	-1	50	-1	33	14	16	44	-1	-1	20	3	24	-1	18	34	-1	-1	-1	-1	37	7	15	9	51	1	-1	-1	38
38	-1	-1	19	-1	12	30	-1	-1	-1	52	62	39	43	-1	-1	40	-1	-1	50	-1	-1	-1	-1	-1	54	-1	15	-1	-1	55	-1	-1	-1	46	25	-1	37	-1	-1	-1	-1	23	41	-1	-1	36	-1	-1	7	56	-1	-1	61	2	-1	-1	4	63	14	29	-1	-1	-1
-1	36	8	-1	35	-1	51	62	53	-1	61	-1	25	-1	-1	-1	-1	49	-1	-1	-1	60	12	-1	57	6	56	7	64	32	-1	-1	-1	-1	41	-1	9	52	13	1	17	-1	2	-1	31	46	34	-1	-1	29	48	19	30	-1	-1	-1	59	26	-1	58	-1	50	-1	-1
61	-1	3	-1	-1	-1	-1	-1	-1	38	-1	-1	-1	48	9	-1	-1	15	-1	2	36	28	-1	22	-1	49	-1	-1	-1	51	-1	59	-1	18	17	11	-1	-1	-1	-1	5	-1	8	-1	21	-1	7	-1	-1	-1	-1	27	-1	60	-1	-1	19	-1	-1	13	6	-1	-1	-1
64	29	-1	-1	54	-1	-1	-1	-1	55	-1	51	-1	36	14	-1	6	37	-1	46	-1	-1	24	-1	3	52	18	1	-1	47	-1	4	-1	15	61	-1	-1	21	30	39	-1	10	-1	-1	53	48	56	-1	-1	-1	-1	26	43	12	20	-1	-1	-1	32	-1	23	31	62	-1
-1	-1	-1	41	-1	-1	7	31	-1	17	-1	15	-1	45	19	11	-1	9	61	53	3	64	58	-1	-1	2	48	-1	25	-1	46	62	-1	-1	55	23	56	-1	-1	10	50	38	35	29	-1	12	-1	32	-1	51	63	57	13	-1	-1	-1	54	44	60	47	21	28	-1	49
-1	55	-1	-1	52	-1	-1	-1	12	19	-1	-1	-1	-1	-1	-1	8	-1	-1	37	-1	18	41	-1	1	-1	-1	3	28	35	-1	32	-1	63	-1	-1	30	6	-1	-1	-1	64	50	17	-1	-1	-1	-1	20	46	-1	5	-1	10	-1	-1	53	-1	-1	25	62	-1	23	42
49	-1	-1	64	45	5	-1	-1	32	24	-1	-1	-1	-1	-1	-1	35	52	-1	-1	38	47	51	-1	-1	-1	-1	12	62	60	53	46	3	-1	26	58	-1	13	-1	-1	7	30	36	14	-1	-1	44	-1	-1	-1	-1	16	17	-1	21	-1	-1	-1	-1	48	-1	-1	-1	-1
-1	19	33	38	17	30	37	-1	-1	-1	-1	-1	53	5	34	-1	26	25	63	62	-1	-1	-1	54	-1	-1	-1	21	-1	-1	-1	-1	14	41	-1	-1	-1	-1	57	29	-1	55	42	-1	6	-1	40	8	-1	52	-1	13	24	-1	-1	1	22	50	-1	-1	60	-1	4	18
2	-1	16	51	27	-1	-1	4	-1	-1	56	37	-1	-1	42	58	-1	20	-1	55	49	1	6	-1	24	-1	-1	50	29	52	19	45	21	-1	-1	-1	-1	-1	-1	-1	35	57	47	26	-1	54	41	18	62	40	25	-1	-1	-1	-1	-1	11	-1	-1	63	-1	39	-1	-1
57	-1	44	62	-1	-1	8	-1	38	-1	31	22	-1	-1	-1	54	50	45	-1	-1	-1	-1	-1	30	17	41	-1	25	5	-1	42	7	2	19	-1	-1	34	-1	-1	16	-1	-1	-1	32	-1	-1	-1	49	48	-1	-1	59	-1	-1	56	28	-1	-1	-1	21	40	36	-1	51
32	-1	43	-1	47	-1	63	-1	21	-1	50	61	51	-1	40	-1	23	-1	-1	-1	-1	-1	57	27	39	8	37	-1	-1	-1	-1	49	-1	-1	1	-1	35	56	28	17	58	48	-1	-1	13	9	-1	4	42	-1	-1	64	-1	6	34	-1	38	59	52	55	19	-1	-1	16
21	-1	-1	-1	-1	29	-1	-1	36	-1	-1	48	43	-1	-1	-1	-1	-1	13	-1	7	15	16	-1	-1	-1	-1	-1	6	-1	-1	-1	-1	-1	-1	-1	-1	10	-1	-1	-1	-1	22	-1	-1	-1	-1	39	12	57	18	-1	-1	26	-1	-1	5	-1	-1	-1	27	32	-1	1
-1	42	-1	59	18	3	-1	-1	-1	-1	-1	20	-1	-1	17	-1	-1	-1	-1	-1	12	-1	-1	44	-1	63	-1	-1	38	-1	22	40	49	25	-1	55	37	23	36	-1	24	-1	-1	43	52	-1	-1	-1	-1	35	51	-1	-1	8	29	-1	47	-1	45	-1	-1	54	-1	-1
-1	20	51	45	-1	-1	47	8	7	22	-1	-1	16	-1	-1	-1	10	24	26	57	-1	43	-1	-1	-1	-1	-1	29	17	40	62	-1	-1	13	-1	-1	28	55	-1	-1	64	49	-1	21	-1	56	52	31	-1	19	39	-1	42	11	-1	-1	15	9	50	53	-1	4	-1	3
26	-1	19	-1	6	9	52	-1	-1	-1	47	-1	-1	-1	-1	-1	51	-1	-1	-1	-1	35	-1	-1	43	-1	-1	2	-1	-1	57	-1	-1	-1	30	-1	22	-1	63	-1	11	17	18	23	39	-1	16	-1	-1	10	5	20	-1	-1	28	-1	29	-1	7	-1	-1	8	59	-1
31	-1	48	18	29	54	64	-1	62	39	-1	8	13	50	6	57	-1	32	15	-1	28	-1	-1	40	-1	-1	21	-1	-1	12	11	-1	-1	34	-1	4	-1	-1	-1	-1	-1	-1	-1	33	-1	-1	58	-1	1	36	-1	7	25	55	59	17	52	-1	-1	-1	-1	27	-1	-1
34	62	-1	35	57	-1	-1	30	43	-1	-1	52	29	53	-1	1	-1	11	37	13	-1	-1	9	49	-1	24	-1	-1	15	22	-1	58	7	48	3	61	41	17	8	18	59	-1	-1	-1	36	-1	55	-1	-1	-1	-1	38	26	64	23	-1	-1	39	-1	-1	45	40	47	-1
37	-1	-1	-1	41	7	49	-1	24	-1	2	64	-1	-1	-1	-1	56	-1	-1	-1	4	-1	3	1	-1	38	25	-1	-1	8	-1	50	46	-1	43	27	-1	-1	-1	-1	26	-1	-1	-1	48	-1	-1	12	6	9	-1	-1	47	29	54	-1	34	-1	-1	33	13	62	55	32
36	14	-1	-1	43	1	-1	33	23	34	20	11	-1	-1	5	26	-1	-1	8	63	-1	-1	7	-1	-1	46	-1	54	56	49	35	39	37	-1	-1	-1	-1	64	-1	52	4	29	32	60	42	-1	45	53	-1	-1	-1	30	2	13	-1	51	-1	-1	-1	-1	24	-1	17	48
-1	-1	-1	13	59	17	55	42	-1	61	49	36	-1	-1	-1	-1	-1	22	44	6	-1	-1	-1	29	64	-1	5	16	-1	-1	-1	19	-1	-1	-1	-1	-1	47	9	-1	-1	40	43	-1	57	30	46	54	-1	48	21	-1	12	-1	35	8	-1	38	1	-1	26	41	60	-1
58	-1	25	-1	61	27	-1	-1	35	-1	-1	-1	19	-1	-1	-1	46	16	-1	-1	17	20	62	-1	48	55	53	-1	-1	-1	-1	1	-1	-1	-1	54	-1	-1	-1	-1	-1	-1	-1	-1	8	-1	-1	47	-1	-1	-1	-1	52	-1	57	60	-1	-1	-1	10	-1	51	-1	-1
45	2	-1	32	25	10	-1	37	1	-1	6	-1	-1	19	-1	7	-1	-1	-1	49	-1	4	44	-1	34	35	-1	-1	-1	-1	63	11	-1	-1	52	12	-1	18	-1	-1	54	3	56	8	16	-1	-1	-1	60	-1	-1	-1	-1	38	9	-1	46	42	-1	-1	51	-1	-1	-1
-1	-1	60	-1	22	-1	-1	57	29	-1	40	-1	20	-1	43	39	-1	55	17	16	27	46	-1	23	21	-1	-1	28	54	-1	-1	53	-1	7	25	-1	-1	41	4	-1	36	24	48	-1	49	-1	5	-1	-1	-1	-1	-1	-1	63	-1	15	10	-1	12	-1	33	47	-1	26
52	-1	17	30	7	49	-1	-1	-1	-1	-1	-1	-1	-1	-1	3	-1	-1	-1	-1	57	13	18	-1	-1	42	16	64	12	58	40	-1	-1	28	-1	-1	19	31	10	-1	-1	-1	4	35	11	-1	-1	-1	34	39	47	2	6	53	33	29	-1	5	41	32	55	1	-1	9
-1	16	6	4	9	-1	-1	59	-1	-1	18	-1	-1	-1	-1	22	60	1	-1	5	-1	12	-1	11	47	-1	55	56	-1	-1	-1	-1	24	3	-1	-1	-1	36	17	-1	41	-1	21	51	-1	-1	-1	-1	30	32	27	42	40	19	44	23	49	63	61	-1	-1	43	-1	-1
41	27	58	21	-1	62	42	35	-1	2	-1	9	-1	51	63	12	-1	36	-1	48	-1	-1	20	-1	31	-1	-1	19	61	26	49	-1	-1	-1	-1	50	59	-1	22	-1	28	-1	-1	57	33	-1	-1	17	-1	16	-1	-1	14	-1	-1	52	-1	23	-1	30	44	-1	38	54
-1	26	-1	8	-1	15	-1	-1	-1	-1	-1	17	62	10	-1	-1	-1	42	-1	7	-1	56	-1	58	-1	60	-1	-1	24	41	6	-1	63	-1	29	-1	-1	49	43	-1	19	18	39	46	44	-1	59	-1	-1	61	-1	-1	-1	-1	64	11	-1	-1	-1	-1	-1	16	-1	-1
-1	-1	-1	-1	55	11	13	29	61	-1	16	41	-1	15	-1	-1	-1	31	-1	52	-1	54	-1	47	10	25	-1	38	-1	30	-1	3	6	44	9	-1	53	60	-1	51	-1	1	64	58	-1	42	14	-1	-1	-1	-1	-1	-1	-1	49	43	-1	-1	-1	-1	-1	-1	48	56
-1	28	-1	-1	-1	48	3	19	-1	33	13	25	32	49	-1	42	-1	-1	-1	39	63	-1	10	-1	-1	45	15	-1	44	-1	27	-1	1	2	21	-1	62	-1	-1	-1	-1	9	-1	-1	26	-1	29	30	-1	55	57	-1	8	37	-1	56	64	-1	53	-1	-1	-1	-1	-1
-1	-1	-1	-1	1	58	48	-1	-1	54	-1	-1	17	46	-1	37	39	3	-1	15	-1	-1	13	32	-1	-1	-1	62	-1	44	12	57	19	5	-1	-1	-1	-1	-1	7	9	34	61	4	43	29	18	35	-1	-1	23	-1	16	-1	8	55	-1	40	-1	2	-1	-1	-1	30
-1	4	34	25	-1	-1	-1	38	6	-1	-1	31	-1	62	35	-1	42	-1	-1	56	-1	40	-1	-1	-1	-1	1	-1	-1	-1	2	-1	48	57	-1	-1	29	-1	-1	26	27	-1	-1	44	14	-1	-1	-1	59	-1	-1	39	-1	3	60	-1	32	24	-1	22	50	49	-1	-1
-1	-1	64	23	-1	-1	21	3	-1	-1	-1	39	2	13	-1	9	12	4	52	-1	59	25	-1	24	36	-1	42	45	50	-1	-1	55	-1	61	40	-1	-1	8	-1	-1	-1	56	19	-1	47	-1	-1	-1	-1	-1	-1	-1	51	58	-1	48	17	28	-1	-1	16	-1	-1	14
33	-1	52	9	14	-1	39	12	-1	51	5	-1	-1	41	-1	-1	44	-1	-1	54	-1	17	-1	6	46	-1	32	-1	47	-1	-1	18	13	36	-1	45	24	43	3	-1	-1	-1	-1	-1	-1	21	22	-1	27	-1	-1	-1	61	1	-1	-1	-1	-1	-1	-1	25	58	11	7
-1	30	-1	-1	16	19	-1	-1	55	49	-1	7	-1	27	24	56	62	48	-1	34	26	9	61	10	8	-1	38	-1	-1	54	64	-1	41	-1	-1	63	-1	-1	37	-1	31	36	17	-1	32	3	13	40	-1	14	-1	29	28	-1	5	2	42	47	-1	-1	52	6	-1	12
62	31	2	37	36	-1	56	50	-1	47	26	42	-1	-1	-1	38	5	-1	11	28	23	-1	35	46	25	16	17	59	-1	-1	-1	22	-1	-1	49	-1	10	-1	-1	-1	-1	-1	45	-1	-1	1	-1	-1	-1	-1	52	-1	19	-1	43	-1	41	61	48	15	8	55	53	-1
55	40	-1	10	-1	-1	17	-1	-1	53	44	29	8	28	-1	48	-1	-1	2	58	-1	-1	-1	14	7	-1	60	35	30	-1	-1	51	-1	-1	16	34	-1	33	42	47	-1	39	-1	24	37	5	57	-1	56	-1	15	12	11	-1	-1	13	43	54	-1	62	-1	3	64	-1
-1	-1	54	-1	-1	-1	-1	-1	58	-1	-1	-1	-1	-1	61	32	7	-1	45	-1	33	16	21	20	-1	40	-1	-1	-1	56	4	-1	-1	64	28	22	-1	-1	-1	6	-1	-1	30	49	-1	15	2	48	35	-1	-1	-1	-1	-1	-1	31	-1	13	18	39	-1	34	-1	57
48	3	61	6	37	-1	-1	21	-1	13	53	-1	35	-1	18	36	-1	-1	-1	45	-1	-1	-1	64	-1	39	50	63	-1	57	52	31	-1	-1	33	1	27	-1	-1	32	-1	19	54	55	-1	-1	-1	29	40	8	30	-1	-1	-1	-1	-1	24	51	59	-1	12	-1	-1	-1
60	-1	-1	-1	-1	20	-1	-1	-1	-1	57	-1	-1	8	55	-1	-1	61	3	35	2	5	38	63	-1	-1	9	-1	49	48	-1	-1	47	-1	22	-1	-1	-1	-1	-1	16	-1	15	-1	-1	52	33	-1	-1	56	28	-1	-1	-1	31	-1	36	-1	-1	11	-1	53	-1	62
-1	-1	-1	-1	-1	-1	18	-1	-1	45	10	49	24	23	32	-1	-1	-1	-1	-1	42	21	50	-1	-1	-1	62	-1	35	2	38	-1	60	40	36	52	39	-1	-1	-1	-1	20	-1	-1	28	57	-1	-1	9	43	-1	-1	-1	34	61	3	14	41	33	-1	47	44	-1	-1
-1	-1	-1	33	-1	40	45	-1	-1	31	-1	-1	-1	-1	22	-1	-1	-1	-1	-1	53	-1	-1	-1	-1	1	-1	-1	-1	25	-1	23	-1	6	-1	64	-1	14	51	-1	30	-1	62	39	60	2	-1	21	-1	12	44	-1	-1	36	42	26	-1	-1	8	-1	18	35	-1	50
-1	-1	57	-1	62	34	27	43	63	-1	51	5	52	-1	-1	4	-1	-1	23	-1	-1	24	30	8	54	21	45	40	-1	-1	17	-1	18	37	-1	10	-1	-1	19	-1	13	47	31	-1	-1	64	-1	59	2	-1	-1	-1	-1	-1	-1	-1	-1	-1	-1	-1	-1	-1	1	15
-1	-1	49	29	-1	46	-1	47	59	-1	-1	58	1	17	-1	28	-1	-1	57	-1	-1	-1	54	-1	-1	-1	-1	-1	-1	-1	-1	-1	55	-1	12	-1	-1	16	-1	9	-1	50	-1	56	63	-1	35	34	53	5	10	-1	4	-1	51	45	23	3	-1	20	7	60	-1	61
-1	-1	53	7	8	-1	-1	39	-1	-1	12	-1	-1	21	-1	-1	-1	28	-1	20	40	-1	-1	37	15	3	-1	33	-1	-1	58	27	25	-1	63	41	-1	-1	31	35	-1	5	-1	36	-1	18	24	-1	-1	-1	32	-1	-1	16	11	19	-1	55	-1	57	42	-1	2	-1
25	-1	56	-1	63	32	-1	-1	42	64	38	26	-1	-1	11	15	49	-1	-1	-1	-1	-1	-1	-1	5	-1	-1	34	19	-1	16	20	-1	-1	-1	24	57	3	-1	-1	51	-1	-1	1	-1	53	-1	-1	29	13	35	50	-1	-1	-1	-1	48	-1	37	-1	-1	-1	21	52
64 
45 52 51 23
3 36 33 39
13 1 5 37
58 5 46 11
17 16 56 2
48 43 58 12
3 29 44 31
4 41 9 46
7 20 54 34
39 13 21 21
27 25 62 29
5 32 40 63
2 43 62 59
11 26 49 12
40 50 3 15
23 60 48 36
28 61 50 36
8 24 16 9
37 22 58 7
43 25 51 44
53 32 46 53
40 61 21 34
27 8 15 23
24 55 49 8
26 46 53 44
40 34 19 14
24 47 46 60
61 59 49 1
16 43 60 60
59 3 6 54
5 26 6 57
61 21 46 25
1 27 12 37
17 14 58 39
42 53 15 27
3 7 40 30
33 52 60 14
46 5 23 33
29 6 39 36
1 60 48 1
48 18 56 51
34 24 8 29
26 61 53 19
1 35 63 38
31 34 6 42
27 10 47 13
48 9 46 34
46 28 15 41
35 61 6 4
32 3 38 46
49 38 35 35
56 33 1 58
7 39 37 4
19 53 6 63
21 64 16 40
2 34 16 41
25 14 3 33
44 63 59 18
42 51 28 35
53 11 8 4
60 31 42 2
51 40 11 16
7 61 54 49
28 14 15 5
